50 8
294 436
189 30
743 758
813 757
537 274
281 783
858 278
192 593
247 733
585 741
175 728
337 107
800 498
230 144
295 700
636 313
413 470
403 105
749 573
739 592
925 293
277 736
825 315
385 542
308 682
250 626
881 709
565 266
557 119
419 36
421 561
818 368
815 326
532 759
675 720
410 205
420 174
290 299
354 91
380 491
630 176
819 448
763 458
708 690
70 610
304 351
641 470
770 582
277 881
804 311
